\ LP format - for model browsing. Use MPS format to capture full model detail.
Maximize
   5 x_1 + 7 x_2 + 5 x_3 + 6 x_4 + 9 x_5
Subject To
 C_1: 4 x_1 + 10 x_2 + 2 x_3 + 6 x_4 + x_5 <= 11
 C_2: 2 x_1 + 8 x_2 + 2 x_3 + 2 x_4 + 10 x_5 <= 12
 C_3: 6 x_1 + x_2 + 2 x_3 + 7 x_4 + 6 x_5 <= 11
 C_4: 8 x_1 + 3 x_2 + 9 x_3 + 9 x_4 + 7 x_5 <= 18
 C_5: 7 x_1 + 10 x_2 + 5 x_3 + 6 x_4 + 4 x_5 <= 16
Bounds
Binaries
 x_1 x_2 x_3 x_4 x_5
End
